\ This file was automatically generated by Zimpl
\ var w1 <= 0;
\ var w2 <= 0;
\ var w3 <= 0;
\ minimize Z :     10*w1 + 11*w2 + 12*w3;
\ subto r1:     1*w1 + 3*w2 + 5*w3 >= 4;
\ subto r2:     1*w1 + 4*w2 + 6*w3 == 1;
\ subto r3:     7*w1 + 8*w2 + 8*w3 <= 5;
\Problem name: .\pd.zpl
Minimize
 Z:  +10 w1 +11 w2 +12 w3
Subject to
 r1_1:
  +5 w3 +3 w2 + w1 >= 4
 r2_1:
  +6 w3 +4 w2 + w1 = 1
 r3_1:
  +8 w3 +8 w2 +7 w1 <= 5
Bounds
 w1 = 0
 w2 = 0
 w3 = 0
End
